97 2093
1 2 3 6 7 9 10 16 18 19 27 29 33 34 40 43 44 47 48 49 50 52 53 56 57 58 62 63 64 66 67 70 74 78 80 82 83 88 89 91 96
0 2 4 5 8 10 12 13 15 17 18 20 22 25 28 29 30 33 36 37 38 41 42 43 45 46 47 48 49 51 56 58 61 62 63 67 70 72 77 81 85 86 88 90 92 93 94 95 96
0 1 8 9 16 20 21 22 24 26 27 29 31 32 33 34 36 39 45 46 48 50 52 57 58 61 62 64 65 66 67 68 73 74 77 80 83 84 86 89 90 93 94 95 96
0 4 6 7 8 9 10 11 14 16 18 19 20 22 24 25 26 28 29 30 31 33 35 36 37 39 44 48 51 52 53 54 55 56 58 61 67 68 70 72 74 75 81 82 83 85 86 88 89 91 93 94
1 3 5 6 11 13 14 17 18 19 21 22 23 25 28 29 30 37 39 40 41 43 53 58 59 62 65 68 69 70 76 78 79 82 83 84 88 89 93 96
1 4 6 9 10 11 14 17 20 21 22 25 26 27 29 30 31 38 39 52 53 62 66 69 70 77 80 84 88 89 90 92 95 96
0 3 4 5 8 10 17 18 21 22 24 27 30 32 33 34 36 37 38 39 40 42 43 47 51 52 53 57 60 61 62 67 69 72 78 80 86 88 89 93 96
0 3 9 11 14 16 17 20 21 22 28 34 37 44 46 47 48 50 51 52 54 55 59 64 67 69 70 72 74 76 78 82 84 85 86 88 89 90 91 94 96
1 2 3 6 9 10 11 12 16 18 21 22 23 25 28 29 31 32 34 36 38 40 41 42 43 45 50 52 54 55 57 58 59 60 61 62 63 64 70 71 72 76 77 79 81 84 85 87 88 89 92 95 96
0 2 3 5 7 8 12 17 19 22 27 34 38 42 43 44 45 46 49 50 54 55 58 59 60 62 65 67 68 70 71 74 76 80 81 88 90 93 96
0 1 3 5 6 8 13 14 23 26 29 30 32 33 34 36 37 38 41 42 43 46 47 50 51 52 54 55 59 60 62 64 65 66 77 79 82 84 86 87 88 91 96
3 4 5 7 8 14 16 20 23 24 25 27 28 32 33 37 38 39 41 43 46 48 49 50 51 54 56 58 60 61 62 63 65 66 67 69 70 71 74 75 77 79 80 81 87 89 92 95 96
1 8 9 16 17 19 21 25 26 27 34 37 41 44 45 46 49 50 52 54 55 57 59 62 63 64 66 67 68 71 72 74 75 76 77 79 81 82 85 89 90 91 93 94 95 96
1 4 10 15 18 20 21 23 25 27 29 31 34 38 39 40 47 48 49 53 55 56 59 63 64 65 68 71 73 74 77 78 80 87 88 92 93 96
3 4 5 7 10 11 16 17 18 19 21 23 26 27 31 35 36 38 41 47 48 49 56 60 61 63 68 69 71 78 80 81 82 83 91 95
1 13 16 18 20 21 25 26 30 31 36 39 41 42 44 45 47 49 53 54 55 57 59 62 63 65 70 71 72 75 77 78 79 83 86 87 92 95 96
0 2 3 7 8 11 12 14 15 17 19 21 22 27 28 37 38 41 43 45 55 57 60 62 67 72 73 78 87 88 91
1 4 5 6 7 9 12 14 16 18 19 21 22 28 32 33 35 36 39 42 45 46 47 55 56 57 62 63 67 69 71 72 77 81 86 87 89 91 94
0 1 3 4 6 8 13 14 15 17 19 23 25 27 28 29 33 34 36 41 43 46 50 52 53 56 57 60 61 62 66 67 68 70 75 78 79 80 83 84 86 87 93
0 3 4 9 12 14 16 17 18 23 24 25 26 34 35 36 38 41 44 45 48 51 55 57 58 62 63 64 67 71 72 73 77 81 83 85 86 87 88 89 90 91 94 96
1 2 3 5 7 11 13 15 23 27 30 31 33 35 36 37 38 40 42 47 49 50 53 54 55 60 61 63 72 76 77 80 81 85 86 90 93 94 96
2 4 5 6 7 8 12 13 14 15 16 17 23 24 25 29 32 33 34 37 38 41 42 45 48 49 51 55 56 61 62 68 70 71 72 74 75 77 78 81 85 86 88 89 94 95 96
1 2 3 4 5 6 7 8 9 16 17 33 35 36 38 40 42 43 44 46 51 54 55 57 58 60 66 71 72 77 78 79 80 86 87 88 89 90 91 93 95
4 8 10 11 13 14 18 19 20 21 28 31 32 34 36 38 42 44 45 46 47 48 49 51 57 59 61 62 67 68 73 75 76 78 79 82 84 85 86 90 91 92 96
2 3 6 11 19 21 26 30 40 43 44 45 46 48 51 55 56 57 66 69 70 71 74 82 83 85 86 87 91 92
1 3 4 5 8 11 12 13 15 18 19 21 27 28 29 30 31 38 44 45 46 53 57 66 67 68 69 72 73 76 77 78 79 81 82 86 87 89 91 92 93 96
2 3 5 10 12 14 15 19 24 27 30 31 32 33 40 41 43 46 47 49 53 54 58 61 63 65 66 67 68 72 74 75 78 80 86 87 89 92 93 95 96
0 2 5 6 9 11 12 13 14 16 18 20 25 26 31 34 35 36 39 40 41 43 45 46 47 49 51 52 54 55 56 59 60 61 62 63 64 65 66 68 70 72 75 76 77 79 80 81 85 87 89 91 92 95 96
1 3 4 7 8 11 16 17 18 23 25 32 35 38 39 43 45 47 50 51 53 57 58 60 62 64 68 69 70 72 73 74 75 79 81 82 83 84 92 94 95 96
0 1 2 3 4 5 8 10 13 18 21 25 31 32 33 34 35 37 42 46 47 49 51 53 54 55 56 57 61 65 66 67 69 70 72 73 74 76 77 79 80 85 86 88 89 90 91 94 96
1 3 4 5 6 10 15 20 24 25 26 31 32 38 39 41 42 44 45 51 53 54 55 56 57 60 67 68 71 73 74 75 80 83 84 86 87 89 90 91 92 96
2 3 5 8 13 14 15 20 23 25 26 27 29 30 32 33 34 35 36 37 38 40 44 46 48 50 52 56 59 60 61 62 63 65 68 69 71 74 75 76 78 79 80 81 82 83 84 86 89 91 93 96
2 6 8 10 11 17 21 23 26 28 29 30 31 40 41 42 45 46 47 52 55 57 58 60 61 65 66 67 70 72 73 74 80 81 82 83 85 86 87 90 91 93 94 95
0 1 2 3 6 10 11 17 18 20 21 22 26 29 31 34 37 40 41 50 51 52 54 55 57 61 62 64 65 66 68 71 73 74 79 80 81 82 83 84 86 89 90 91 94 96
0 2 6 7 8 9 10 12 13 18 19 21 23 27 29 31 33 35 41 44 46 48 50 51 54 55 56 57 61 63 64 69 70 71 73 77 78 80 81 82 83 84 88 89 92 95 96
3 14 17 19 20 22 27 28 29 31 34 36 43 44 47 49 51 52 54 56 58 59 61 63 64 66 68 69 71 73 74 77 83 84 85 87 89 90 91 92 93 94
1 2 3 6 8 10 14 15 17 18 19 20 22 23 27 31 35 38 42 44 45 46 53 56 57 61 62 65 72 76 77 78 81 84 85 87 88 89 90 93 94 95 96
1 3 4 6 7 10 11 12 16 20 21 29 31 33 38 40 43 44 50 52 53 56 57 58 60 62 65 66 69 72 73 74 78 79 81 82 86 87 88 93 95
1 5 6 8 9 10 11 13 14 16 19 20 21 22 23 25 28 30 31 36 37 39 41 42 44 45 46 49 53 55 56 61 63 64 65 66 67 68 70 71 74 80 81 84 86 87 90 91 92 95
2 3 4 5 6 11 13 15 17 27 28 30 38 41 44 48 50 51 53 57 58 59 60 63 68 69 70 71 73 78 79 80 81 82 88 89 91
0 4 6 8 13 20 22 24 26 27 31 32 33 37 45 47 49 50 55 61 63 65 66 70 71 73 76 79 80 82 85 91
1 4 8 10 11 12 14 15 16 18 19 21 26 27 30 32 33 34 38 39 43 45 46 47 52 55 57 58 59 61 63 66 70 71 74 75 76 77 79 80 81 82 84 85 87 88 89 90 94 95
1 6 8 9 10 15 17 20 21 22 23 29 30 32 36 38 44 48 59 60 62 69 72 73 74 80 81 84 85 88 89 90 92
0 1 4 6 8 9 10 11 16 18 22 24 26 27 28 35 37 41 44 45 48 49 50 51 54 56 58 64 65 66 67 68 71 72 74 77 78 79 80 81 85 88 89 96
0 3 7 9 12 15 19 22 23 24 25 30 31 34 35 36 37 38 39 42 43 48 51 54 61 62 65 66 67 68 69 73 74 78 79 85 86 87 94 95
1 2 8 9 12 15 16 17 19 21 23 24 25 27 28 30 32 36 38 40 41 43 46 48 49 50 55 60 62 64 67 69 73 74 75 81 82 83 91 93 95
1 2 7 9 10 11 12 17 18 22 23 24 25 26 27 29 31 32 34 36 38 41 45 49 53 56 57 58 60 62 65 69 70 72 75 77 78 79 86 87 88 95
0 1 6 7 10 13 14 15 17 20 23 26 27 28 29 32 35 40 41 49 51 52 53 55 57 58 61 63 68 71 74 75 76 77 80 81 82 83 84 89 92
0 1 2 3 7 11 13 14 19 21 23 24 31 34 39 42 43 44 45 50 51 52 54 55 56 57 59 60 61 63 64 69 70 71 75 80 82 83 84 85 89 94 95 96
0 1 9 11 12 13 14 15 20 21 23 26 27 29 35 38 40 43 45 46 47 55 56 65 66 67 69 73 74 76 80 82 87 90 92 94
0 2 7 8 9 10 11 12 18 20 28 31 33 34 37 39 40 43 45 48 53 56 57 59 60 64 65 66 67 68 70 74 76 77 80 87 88 90 93 96
1 3 6 7 10 11 19 21 22 23 24 27 28 29 30 33 34 35 39 43 44 47 48 53 55 56 58 60 61 65 70 71 72 74 76 79 83 84 86 90 94
0 2 3 5 6 7 8 10 12 18 27 31 32 33 35 37 41 47 48 54 59 61 63 67 70 71 75 82 83 86 88 94 95 96
0 3 4 5 6 13 15 18 20 25 26 28 29 30 36 37 38 39 46 47 50 51 56 60 61 62 67 68 69 70 71 72 73 74 76 78 79 83 84 86 88 93 94 95
3 7 8 9 10 11 12 15 20 22 26 27 29 30 33 34 35 43 44 48 52 56 68 71 72 74 78 80 81 84 92 95 96
3 7 8 9 10 12 13 15 16 17 19 20 21 22 24 27 29 30 32 33 34 38 40 41 45 47 48 49 51 56 58 59 60 61 62 63 66 69 75 78 84 85 86 87 89 90 92 93 95
0 1 3 11 13 14 17 18 21 24 27 29 30 31 34 35 36 37 38 43 46 48 49 50 51 53 54 55 57 59 60 61 63 65 69 72 82 83 84 85 91 94 96
0 2 6 8 12 15 16 17 18 19 22 23 24 25 28 29 30 32 33 34 36 37 39 41 46 47 48 50 56 61 64 66 69 70 71 74 75 76 79 82 84 87 90 93 94 95
0 1 2 3 4 8 9 11 19 22 26 28 32 35 37 39 41 43 46 47 51 55 60 62 63 65 66 69 70 72 73 74 77 78 79 81 82 89 90 91 95 96
4 7 8 9 10 12 13 15 23 27 31 35 39 41 42 48 50 52 55 56 60 61 62 64 66 72 73 74 75 76 78 81 85 87 88 89 91 93 95 96
6 8 9 10 11 14 16 18 20 22 27 28 30 31 32 37 39 42 45 46 48 50 51 53 55 56 58 59 64 66 69 72 73 74 78 80 82 83 87 88 92 93 95
1 2 3 6 8 11 14 18 20 21 23 26 27 29 31 32 33 34 35 36 38 40 41 44 47 48 51 52 53 55 56 57 59 64 67 68 69 71 74 75 76 79 80 81 83 86 89 90 92 94
0 1 2 4 5 6 8 9 10 11 12 15 16 17 18 19 21 23 27 28 31 33 36 37 42 44 45 46 53 55 58 59 63 64 67 69 72 75 76 77 79 80 85 86 89 94
0 1 8 11 12 13 14 15 17 19 20 26 27 31 34 35 38 39 40 41 47 48 52 55 56 58 62 64 65 68 69 70 71 72 73 74 77 82 84 85 86 87 88 92 94 95
0 2 7 8 10 12 13 19 27 28 33 34 35 38 43 45 48 50 57 59 60 61 62 63 65 67 72 73 74 77 78 79 80 81 83 86 88 90 92 94 96
2 4 9 10 11 13 15 26 27 29 31 32 33 36 37 38 40 43 44 46 49 50 51 56 58 63 64 66 67 68 72 73 76 79 80 81 83 85 86 88 89 91 94 95
0 2 5 10 11 12 18 22 24 25 26 27 29 32 33 35 37 38 40 41 43 44 49 50 55 57 58 59 60 65 67 68 69 72 73 74 83 84 85 86 87 89 94 95 96
0 1 2 3 6 7 9 11 12 16 17 18 19 23 25 26 29 30 32 38 43 44 45 49 50 52 53 61 62 64 65 66 68 69 70 74 75 76 81 82 84 87 88 89 90 91 92 93 95 96
2 3 4 9 12 13 14 18 21 23 25 26 27 28 30 31 33 35 38 39 43 44 47 50 53 54 61 63 65 66 67 70 76 80 81 83 84 85 90 91 95
4 5 6 7 11 14 17 24 25 28 29 31 34 35 37 39 42 44 45 46 48 49 53 55 56 57 58 60 61 62 63 66 67 71 72 80 82 84 85 86 89 90 91 92 93 95 96
0 1 3 4 5 7 8 9 11 15 18 21 24 27 28 29 32 34 38 39 40 41 46 48 50 51 52 53 57 58 63 67 68 72 74 77 78 79 80 81 82 84 87 88 89 92 94 95
8 9 11 12 13 14 15 17 19 21 22 24 30 31 33 34 35 38 39 40 41 43 47 48 51 52 53 54 57 61 63 69 75 79 86 92 94 95 96
1 3 6 7 8 12 15 16 17 19 20 21 22 25 26 27 28 29 32 36 37 42 43 46 51 53 54 56 58 59 60 62 63 64 65 66 69 70 75 76 78 79 80 81 82 86 87 88 90 91 92 93 96
2 13 16 19 23 25 28 29 30 32 33 34 35 37 39 40 42 44 45 49 53 58 59 60 63 64 65 66 74 75 76 80 83 84 85 86 88 89 91 92 93 94 95
0 2 3 7 9 11 12 13 21 24 26 28 29 30 31 32 33 35 37 38 41 42 43 44 45 47 49 50 51 53 54 57 58 59 60 61 63 64 66 67 70 73 75 78 81 84 85 87 89 90 93 96
3 11 12 15 18 21 23 26 27 28 30 31 41 45 46 47 48 52 55 57 59 61 62 67 71 72 73 74 81 82 86 91 92 96
4 7 8 9 12 20 23 25 27 29 31 36 40 41 47 49 50 51 53 57 59 61 62 65 67 68 72 73 77 81 82 85 86 87 88 89 94 95
1 2 5 8 10 11 12 13 15 17 19 20 21 22 25 27 29 34 35 36 41 43 46 47 50 58 62 63 64 70 76 79 81 82 83 84 85 86 87 88 89 90 92 95
0 4 6 7 13 14 15 16 18 21 22 23 25 26 31 34 36 37 39 43 44 46 53 54 55 58 59 60 64 70 72 74 79 82 83 84 87 90 92 94 96
4 8 10 11 12 15 18 22 23 25 27 28 29 31 33 37 39 40 41 43 44 46 51 53 57 58 61 62 64 65 70 71 72 77 78 80 81 82 83 86 90 92 93
0 2 5 6 9 11 13 14 18 20 22 26 27 29 30 31 32 33 34 38 39 40 41 42 43 47 48 49 50 54 60 61 62 64 65 68 69 70 72 73 79 82 83 85 86 88
1 3 8 9 11 12 14 17 19 20 21 25 27 28 31 32 33 34 36 37 38 39 41 42 43 45 47 54 58 59 61 64 65 67 68 70 72 74 75 76 77 79 83 84 86 87 90 91 92 93 94 95
0 3 4 7 10 12 14 23 24 25 28 31 32 33 34 37 39 40 41 45 47 48 49 52 56 57 58 60 63 67 69 70 72 75 76 77 78 79 80 83 85 87 88 91 95
0 2 3 4 14 15 18 19 24 28 30 31 32 33 34 35 45 47 48 51 52 53 56 60 61 64 65 66 68 73 77 78 79 80 81 82 85 89 91 92 94 95
2 4 5 7 8 10 18 23 28 30 31 33 34 35 36 38 41 42 47 48 51 53 54 55 56 57 63 66 67 68 69 70 73 74 77 78 81 86 87 88 89 94 96
1 3 7 8 12 19 20 21 23 24 27 29 32 35 36 40 41 42 43 44 48 55 56 59 62 63 65 66 68 69 73 74 76 77 80 82 83 87 88 89 91 95
1 2 3 6 7 10 15 17 18 19 20 21 22 23 24 25 26 29 30 31 32 33 37 38 44 46 51 52 53 55 61 62 63 64 65 66 69 71 72 73 75 76 77 79 80 81 84 88 90 92 93 96
8 10 11 13 15 16 17 18 19 22 24 25 26 27 30 32 35 36 37 38 41 44 46 49 50 55 57 59 60 63 66 67 70 72 74 76 77 78 81 82 84 85 90 94
0 1 3 4 5 6 7 8 9 10 13 16 19 21 22 29 34 36 37 39 41 42 43 46 50 52 53 59 60 63 64 65 67 70 72 73 76 77 80 82 84 85 86 92 93 94
0 2 3 4 5 6 7 8 11 12 17 19 21 22 25 26 27 29 30 31 33 34 35 36 39 41 42 43 47 48 55 58 59 61 62 65 66 67 69 70 73 74 76 77 83 84 85 90 92 94 95 96
1 2 5 7 9 12 19 20 22 23 29 30 32 33 35 36 38 41 42 49 50 51 55 57 58 61 64 67 68 69 72 74 77 78 79 81 86 87 89 92 94 95
0 3 7 10 12 14 16 17 19 22 23 24 25 27 29 30 31 32 33 35 38 39 40 45 56 58 59 65 67 68 69 72 73 75 81 82 83 85 92 93
1 5 8 11 13 15 23 24 25 26 27 28 30 34 35 38 42 47 49 54 55 60 61 63 64 67 69 70 71 72 73 75 77 78 79 81 83 86 88 89 90 91
1 2 3 4 6 9 12 13 18 20 22 25 26 31 32 35 36 37 45 50 53 55 57 59 60 67 69 72 73 74 79 81 86 88 91
1 2 3 7 12 17 19 20 21 28 29 32 33 35 36 41 44 48 49 51 52 53 56 57 61 62 63 64 65 66 70 71 73 76 78 81 83 84 87 88 89 90 95 96
1 2 5 8 11 12 14 15 21 22 26 27 28 32 34 36 37 38 41 44 45 46 48 52 53 54 55 57 58 59 60 63 65 66 67 68 69 70 71 73 76 77 81 82 83 85 89 90 94 96
0 1 2 4 5 6 7 8 9 10 11 12 13 15 19 20 21 23 25 26 27 28 29 30 31 33 34 36 43 48 50 52 54 56 58 59 64 66 67 69 71 72 74 75 78 84 86 89 94 95
